certificates/rado_a13_c36_N31.cnf
c Rad2 upper bound instance: x1 + 13*x2 - x3 = 36, interval [1,31]
p cnf 31 148
1 3 4 0
-1 -3 -4 0
1 4 17 0
-1 -4 -17 0
1 5 30 0
-1 -5 -30 0
2 3 5 0
-2 -3 -5 0
2 4 18 0
-2 -4 -18 0
2 5 31 0
-2 -5 -31 0
3 6 0
-3 -6 0
3 4 19 0
-3 -4 -19 0
3 4 7 0
-3 -4 -7 0
4 20 0
-4 -20 0
3 5 8 0
-3 -5 -8 0
4 5 21 0
-4 -5 -21 0
3 6 9 0
-3 -6 -9 0
4 6 22 0
-4 -6 -22 0
3 7 10 0
-3 -7 -10 0
4 7 23 0
-4 -7 -23 0
3 8 11 0
-3 -8 -11 0
4 8 24 0
-4 -8 -24 0
3 9 12 0
-3 -9 -12 0
4 9 25 0
-4 -9 -25 0
3 10 13 0
-3 -10 -13 0
4 10 26 0
-4 -10 -26 0
1 2 11 0
-1 -2 -11 0
3 11 14 0
-3 -11 -14 0
4 11 27 0
-4 -11 -27 0
2 12 0
-2 -12 0
3 12 15 0
-3 -12 -15 0
4 12 28 0
-4 -12 -28 0
2 3 13 0
-2 -3 -13 0
3 13 16 0
-3 -13 -16 0
4 13 29 0
-4 -13 -29 0
2 4 14 0
-2 -4 -14 0
3 14 17 0
-3 -14 -17 0
4 14 30 0
-4 -14 -30 0
2 5 15 0
-2 -5 -15 0
3 15 18 0
-3 -15 -18 0
4 15 31 0
-4 -15 -31 0
2 6 16 0
-2 -6 -16 0
3 16 19 0
-3 -16 -19 0
2 7 17 0
-2 -7 -17 0
3 17 20 0
-3 -17 -20 0
2 8 18 0
-2 -8 -18 0
3 18 21 0
-3 -18 -21 0
2 9 19 0
-2 -9 -19 0
3 19 22 0
-3 -19 -22 0
2 10 20 0
-2 -10 -20 0
3 20 23 0
-3 -20 -23 0
2 11 21 0
-2 -11 -21 0
3 21 24 0
-3 -21 -24 0
2 12 22 0
-2 -12 -22 0
3 22 25 0
-3 -22 -25 0
2 13 23 0
-2 -13 -23 0
3 23 26 0
-3 -23 -26 0
1 24 0
-1 -24 0
2 14 24 0
-2 -14 -24 0
3 24 27 0
-3 -24 -27 0
1 2 25 0
-1 -2 -25 0
2 15 25 0
-2 -15 -25 0
3 25 28 0
-3 -25 -28 0
1 3 26 0
-1 -3 -26 0
2 16 26 0
-2 -16 -26 0
3 26 29 0
-3 -26 -29 0
1 4 27 0
-1 -4 -27 0
2 17 27 0
-2 -17 -27 0
3 27 30 0
-3 -27 -30 0
1 5 28 0
-1 -5 -28 0
2 18 28 0
-2 -18 -28 0
3 28 31 0
-3 -28 -31 0
1 6 29 0
-1 -6 -29 0
2 19 29 0
-2 -19 -29 0
1 7 30 0
-1 -7 -30 0
2 20 30 0
-2 -20 -30 0
1 8 31 0
-1 -8 -31 0
2 21 31 0
-2 -21 -31 0
