certificates/rado_a13_c36_N31.drat
-28 -29 -31 0
12 15 28 0
-4 -25 2 -29 0
4 1 0
d 4 17 1 0
15 28 -29 -30 0
4 -31 0
-1 -4 0
3 -31 0
-4 -31 0
d -15 -4 -31 0
-31 0
-4 0
1 0
20 0
15 0
-24 0
8 0
-3 0
6 0
28 0
19 0
7 0
21 0
27 0
-29 0
-5 0
-30 0
26 0
13 0
2 0
14 0
-16 0
-23 0
-12 0
-25 0
-18 0
-11 0
-10 0
-9 0
-17 0
0
